(set-info :status unknown)
(declare-fun C2 () (_ BitVec 41))
(declare-fun %X () (_ BitVec 41))
(declare-fun C1 () (_ BitVec 41))
(assert
 (let ((?x19081 (ite (bvsge %X C2) (_ bv1 1) (_ bv0 1))))
 (let ((?x9894 (ite (bvslt %X C1) (_ bv1 1) (_ bv0 1))))
 (let (($x20269 (and (distinct (bvor ?x9894 ?x19081) (ite (bvsgt %X (bvsub C2 (_ bv1 41))) (_ bv1 1) (_ bv0 1))) true)))
 (and (bvsle C1 C2) (and (distinct C1 C2) true) (= C1 (bvshl (_ bv1 41) (bvsub (_ bv41 41) (_ bv1 41)))) $x20269)))))
(check-sat)
